JulietBench/Juliet_Based_Patch_Bench/linux/CWE-189-Numeric-Errors/CVE_2015_4003_04bf464a5dfd9ade0dda918e44366c2c61fce80b/solveroz_usb_handle_ep_data_Snippet_patch2.smt2
; benchmark generated from python API
(set-info :status unknown)
(declare-fun rdi () (_ BitVec 64))
(declare-fun R () (_ BitVec 32))
(assert
 (let ((?x6 ((_ extract 31 0) rdi)))
 (let ((?x25 (bvadd (_ bv4294967290 32) ?x6)))
 (let (($x44 (and (distinct R ?x25) true)))
 (let (($x32 (= R ?x25)))
 (let (($x42 (or $x32 $x44)))
 (not $x42)))))))
(check-sat)
